111 300 116 123 120 130 118 123 133 150 120 142 133 112 130 145 117 134 102 117 119 141 134 134 118 106 103 138 100 146 107 119 124 149 116 118 102 134 116 136 107 136 101 140 122 131 108 113 139 135 131 108 125 139 116 118 145 119 105 119 139 137 112 138 109 128 105 112 137 146 122 144 132 123 108 128 128 141 116 117 126 147 150 100 109 140 118 104 108 148 148 148 135 110 109 144 112 114 130 149 110 101 117 116 149 150 118 127 140 134 118 115 130 